InboundTrucks  = 10;
OutboundTrucks = 10;
InboundDoors   = 4;
OutboundDoors  = 4;
ReleaseTime    = [4,18,117,28,52,35,83,117,77,80];
UnloadTime     = [5,8,12,27,22,35,15,23,33,21];
LoadTime       = [14,15,22,16,11,10,25,16,14,10];
TransferTime   = [| 3,0,0,8,0,0,0,0,0,0 | 0,2,0,0,0,0,0,0,0,0 | 0,0,0,5,8,0,0,0,3,0 | 8,0,0,0,0,8,0,4,4,0 | 8,0,0,0,3,0,0,0,5,0 | 0,0,0,0,0,0,0,4,0,6 | 3,0,0,5,0,0,0,3,8,0 | 0,0,4,0,0,0,0,0,0,0 | 7,0,7,5,7,0,0,0,7,0 | 0,0,3,0,0,7,0,0,0,0 |];
